120
150
47
58
50
50
45
50
58
50
57
52
60
60
48
54
51
48
41
51
53
53
48
55
50
55
55
48
52
42
58
44
40
45
50
48
44
59
40
51
55
51
46
51
44
53
58
42
55
55
50
48
55
52
55
55
49
54
43
54
52
52
59
40
50
42
51
58
41
47
60
48
55
53
42
41
51
48
59
46
46
51
44
50
50
52
50
57
59
41
51
50
57
59
49
56
54
40
49
50
40
51
48
51
43
60
51
48
52
42
54
42
44
49
42
47
51
60
50
60
60
59
